        pair_coeff 1 1 lj/cut/coul/debye  2.955  4.56
        pair_coeff 2 2 lj/cut/coul/debye  0.081  3.90
        pair_coeff 3 3 lj/cut/coul/debye  0.091  3.95
        pair_coeff 4 4 lj/cut/coul/debye  0.195  3.75
        pair_coeff 5  5  lj/cut/coul/debye  0.461  4.97
        pair_coeff 6 6 lj/cut/coul/debye  0.185  3.02
        pair_coeff 7 7 lj/cut/coul/debye  0.157  3.05
        pair_coeff 8  8  lj/cut/coul/debye  0.000  0.00
        
        pair_coeff 1 2 lj/cut/coul/debye  0.491  4.23
        pair_coeff 1 3 lj/cut/coul/debye  0.52   4.26
        pair_coeff 1 4 lj/cut/coul/debye  0.759  4.15
        pair_coeff 1 5  morse              5.58   0.746  2.868
        pair_coeff 1 6 lj/cut/coul/debye  0.739  3.79
        pair_coeff 1 7 lj/cut/coul/debye  0.681  3.8
        pair_coeff 1 8  lj/cut/coul/debye  0.000  0.00
        pair_coeff 2 3 lj/cut/coul/debye  0.086  3.92
        pair_coeff 2 4 lj/cut/coul/debye  0.126  3.82
        pair_coeff 2 5  lj/cut/coul/debye  0.194  3.76
        pair_coeff 2 6 lj/cut/coul/debye  0.123  3.46
        pair_coeff 2 7 lj/cut/coul/debye  0.113  3.47
        pair_coeff 2 8  lj/cut/coul/debye  0.000  0.00
        pair_coeff 3 4 lj/cut/coul/debye  0.133  3.85
        pair_coeff 3 5  lj/cut/coul/debye  0.205  3.78
        pair_coeff 3 6 lj/cut/coul/debye  0.130  3.49
        pair_coeff 3 7 lj/cut/coul/debye  0.120  3.50
        pair_coeff 3 8  lj/cut/coul/debye  0.000  0.00
        pair_coeff 4 5  lj/cut/coul/debye  0.300  3.68
        pair_coeff 4 6 lj/cut/coul/debye  0.190  3.38
        pair_coeff 4 7 lj/cut/coul/debye  0.175  3.40
        pair_coeff 4 8  lj/cut/coul/debye  0.000  0.00
        pair_coeff 5  6 lj/cut/coul/debye  0.292  3.32
        pair_coeff 5  7 lj/cut/coul/debye  0.269  3.34
        pair_coeff 5  8  lj/cut/coul/debye  0.000  0.00
        pair_coeff 6 7 lj/cut/coul/debye  0.170  3.04
        pair_coeff 6 8  lj/cut/coul/debye  0.000  0.00
        pair_coeff 7 8  lj/cut/coul/debye  0.000  0.00

        bond_coeff 2  harmonic  260.0  1.540
        bond_coeff 1  harmonic  222.0  1.820
        bond_coeff 3 harmonic  450.0  1.430
        bond_coeff 4 harmonic  450.0  1.344
        bond_coeff 5 harmonic  570.0  1.200
        bond_coeff 6  harmonic  553.0  0.945

        angle_coeff 2   harmonic  62.10  114.0
        angle_coeff 1   harmonic  62.10  114.0
		angle_coeff 3 harmonic  50.08  109.5
        angle_coeff 4 harmonic  35.07  111.0
        angle_coeff 5  harmonic  40.04  126.0
        angle_coeff 6  harmonic  40.04  123.0
		angle_coeff 7  harmonic  55.05  108.5
        angle_coeff 8  harmonic  17.49  107.0
        
        dihedral_coeff 2   opls  1.411  -0.271  3.145  0.000
        dihedral_coeff 1   opls  1.411  -0.271  3.145  0.000
        dihedral_coeff 3 opls  0.702  -0.212  3.060  0.000
		dihedral_coeff 7  opls  0.834  -0.116  0.747  0.000
        dihedral_coeff 8  opls  2.504   6.210  0.000  0.000
        dihedral_coeff 4 fourier  4  2.023  0   000.0   1.464  1   000.0  0.115  2  -180.0   0.583  3  0.0
		dihedral_coeff 5  fourier  4  2.023  0   000.0  -1.464  1   000.0  0.115  2  -180.0  -0.583  3  0.0
        dihedral_coeff 6   fourier  2  1.252  1  -180.0   3.105  2  -180.0

