MEOH{
	write("Data Atoms"){
		$atom:C1 $mol:. @atom:C  0.000  0.4740    0.0000    1.0590
		$atom:C2 $mol:. @atom:C  0.265 -0.6210    0.0000   -0.0070
		$atom:O  $mol:. @atom:O -0.700 -0.1250    0.0000    2.3570
		$atom:S  $mol:. @atom:S  0.000  0.1380    0.0000   -1.6540
		$atom:H  $mol:. @atom:H  0.435  0.5980    0.0000    2.9990
	}
	write("Data Bonds"){
		$bond:SC	@bond:SC  $atom:S  $atom:C1
		$bond:CC	@bond:CC  $atom:C1 $atom:C2
		$bond:CO	@bond:CO  $atom:C2 $atom:O
		$bond:OH	@bond:OH  $atom:O  $atom:H
	}
	write("Data Angles"){
		$angle:SCC	@angle:SCC $atom:S $atom:C1 $atom:C2
		$angle:CCO	@angle:CCO $atom:C1 $atom:C2 $atom:O
		$angle:COH  @angle:COH $atom:C2 $atom:O $atom:H
	}
	write("Data Dihedrals"){ 
		$dihedral:SCCO @dihedral:SCCO $atom:S $atom:C1 $atom:C2 $atom:O
		$dihedral:CCOH @dihedral:CCOH $atom:C1 $atom:C2 $atom:O $atom:H
	}
	write_once("Data Masses"){
		@atom:C  12.0107
		@atom:S  32.065
		@atom:O  15.9994
		@atom:H  1.00794
		@atom:Ghost 1.00
	}
	write_once("In Init"){
		units real
		atom_style full
		pair_style hybrid/overlay lj/cut 10.0 coul/wolf 0.2 15.0
		bond_style harmonic
		angle_style harmonic
		dihedral_style opls
		pair_modify mix arithmetic
	}
	write_once("In Settings"){
		pair_coeff * * coul/wolf

		pair_coeff @atom:C @atom:C lj/cut 0.118 3.905
		pair_coeff @atom:O @atom:O lj/cut 0.170 3.070
		pair_coeff @atom:H @atom:H lj/cut 0.000 0.000
		pair_coeff @atom:S @atom:S lj/cut 0.39743 4.25
		pair_coeff @atom:Ghost @atom:Ghost lj/cut 0.000 0.000
	
		bond_coeff @bond:SC 222 1.81
		bond_coeff @bond:CC 260 1.54
		bond_coeff @bond:CO 386 1.425
		bond_coeff @bond:OH 553.0 0.945
		
		angle_coeff @angle:SCC 62.5 114.4 
		angle_coeff @angle:CCO 80.0 120.4
		angle_coeff @angle:COH 55.0 108.5
		
		dihedral_coeff @dihedral:SCCO  1.876 0. 0. 0.
		dihedral_coeff @dihedral:CCOH -0.356 -0.174 0.492 0.
	}
}


