		units real
		atom_style full
		pair_style hybrid/overlay lj/cut 10.0 coul/wolf 0.2 15.0
		bond_style harmonic
		angle_style harmonic
		dihedral_style opls
		pair_modify mix arithmetic
