import "mmp.lt"

mmps = new MMP[1]

write_once("In Init"){
		units real
		atom_style full
		pair_style hybrid/overlay lj/cut/coul/debye 0.2 10.0 morse 10.0
		bond_style hybrid harmonic
		angle_style hybrid harmonic
		dihedral_style hybrid opls
		special_bonds amber
}	
write_once("Data Boundary"){
	-50.0 50.0 xlo xhi
	-50.0 50.0 ylo yhi
	-50.0 50.0 zlo zhi
}

