		pair_coeff * * coul/wolf

		pair_coeff 1 1 lj/cut 0.118 3.905
		pair_coeff 3 3 lj/cut 0.170 3.070
		pair_coeff 4 4 lj/cut 0.000 0.000
		pair_coeff 2 2 lj/cut 0.39743 4.25
		pair_coeff 5 5 lj/cut 0.000 0.000
	
		bond_coeff 1 222 1.81
		bond_coeff 2 260 1.54
		bond_coeff 3 386 1.425
		bond_coeff 4 553.0 0.945
		
		angle_coeff 1 62.5 114.4 
		angle_coeff 2 80.0 120.4
		angle_coeff 3 55.0 108.5
		
		dihedral_coeff 1  1.876 0. 0. 0.
		dihedral_coeff 2 -0.356 -0.174 0.492 0.
