import "ddt.lt"
import "silver.lt"
import "meoh.lt"

silver = new SILVER [2445]
ddts = new DDT [100]
meohs = new MEOH [100]

write_once("In Run"){
	group silver type 1
	group adsorbate type 2 3 4 5 6
	compute PE all pe
	compute myTemp adsorbate temp	
	thermo_modify temp myTemp

	thermo_style	custom step etotal ke temp pe ebond eangle edihed eimp evdwl ecoul elong press
	thermo	10
	timestep 0.5

	fix fxfrc silver setforce 0. 0. 0.
	fix fxtemp adsorbate nvt temp 298 298 10 
	fix fxcalcpe all ave/time 100 1 100 c_PE file pe.out mode scalar

	dump 2 all xyz 10 nanoparticle.xyz
	minimize 1.0e-5 1.0e-7 1000 10000
	run   0
	write_data relaxed.lmp
}

write_once("In Init"){
		units real
		atom_style full
		pair_style hybrid/overlay lj/cut 10.0 coul/wolf 0.2 15.0 morse 10.0
		bond_style hybrid harmonic
		angle_style hybrid harmonic
		dihedral_style hybrid opls
		special_bonds amber
}	
write_once("Data Boundary"){
	-50.0 50.0 xlo xhi
	-50.0 50.0 ylo yhi
	-50.0 50.0 zlo zhi
}

