		units real
		atom_style full
		pair_style hybrid/overlay lj/cut 10.0 coul/wolf 0.2 15.0
		bond_style hybrid harmonic
		angle_style hybrid harmonic
		dihedral_style hybrid opls
		special_bonds amber
